16388 8429 500 497 496 495 490 489 488 486 484 483 481 479 478 477 476 475 473 472 471 470 468 466 465 464 462 459 453 451 450 447 445 444 441 440 437 434 432 431 429 428 427 426 425 424 422 417 416 413 410 409 408 405 404 403 402 401 400 395 393 391 388 386 380 378 373 372 370 369 368 367 363 360 359 358 353 349 348 347 345 344 342 341 338 335 334 333 332 331 327 326 325 324 323 319 311 309 308 307 305 302 299 297 296 295 292 290 289 287 286 284 279 277 275 273 272 269 267 264 263 261 260 259 255 253 252 251 249 248 247 242 241 238 236 235 232 230 229 227 223 221 220 217 213 210 207 205 204 203 202 201 200 197 195 194 192 191 190 179 176 175 172 169 167 163 160 159 158 156 155 154 153 150 149 148 146 145 144 143 142 138 136 134 133 132 131 127 126 124 123 120 119 118 114 110 107 100 96 94 93 89 88 86 84 78 74 73 69 68 66 65 64 61 60 58 57 51 50 49 46 42 38 36 35 34 33 29 27 26 25 24 22 21 16 15 14 12 11 10 9 8 7 4 